decision_x1=[0,4];
decision_x2=[0,4];
decision_x3=[0,4];
decision_x4=[0,4];
random_y1=[0,4];
random_y2=[0,4];
constraint_x3_x2=[
0,1,3.3|
0,2,2.3|
0,3,1.7|
0,4,4.8|
1,0,2.8|
1,2,4|
1,3,0.27|
1,4,1|
2,0,6.6|
2,1,9.8|
2,3,8.9|
2,4,4.3|
3,0,5.6|
3,1,2.2|
3,2,4.7|
3,4,3.9|
4,0,9.9|
4,1,2|
4,2,5.4|
4,3,4.9|
];
constraint_x4_x1=[
0,1,3.5|
0,2,7.8|
0,3,4.6|
0,4,1.4|
1,0,1.5|
1,2,0.97|
1,3,3.3|
1,4,9.5|
2,0,5.9|
2,1,9.6|
2,3,9.5|
2,4,4.2|
3,0,9.4|
3,1,3.8|
3,2,3.6|
3,4,4.2|
4,0,4|
4,1,1.9|
4,2,1.7|
4,3,1.1|
];
constraint_x4_x2=[
0,1,9.4|
0,2,1.3|
0,3,9.7|
0,4,8.7|
1,0,8.1|
1,2,6|
1,3,9.9|
1,4,1.7|
2,0,8.6|
2,1,5.4|
2,3,2.2|
2,4,4.7|
3,0,7.2|
3,1,8.8|
3,2,4.1|
3,4,8.4|
4,0,2.5|
4,1,2.7|
4,2,0.44|
4,3,9.9|
];
constraint_x1_y1=[
0,0,9.1|
0,1,0.49|
0,2,6.6|
0,3,1.9|
0,4,2.3|
1,0,7|
1,1,0.68|
1,2,2.9|
1,3,4|
1,4,3.9|
2,0,4.8|
2,1,7.5|
2,2,6.8|
2,3,0.3|
2,4,1.3|
3,0,2.9|
3,1,3.7|
3,2,1.3|
3,3,7.4|
3,4,0.05|
4,0,5|
4,1,3.6|
4,2,2.8|
4,3,8.4|
4,4,3.9|
];
constraint_x2_y2=[
0,0,6.2|
0,1,4.5|
0,2,4.8|
0,3,1.3|
0,4,7.3|
1,0,9.1|
1,1,4.4|
1,2,8.5|
1,3,6.9|
1,4,6.5|
2,0,7.3|
2,1,8.7|
2,2,3.7|
2,3,9.1|
2,4,9.9|
3,0,3.8|
3,1,1.8|
3,2,6.7|
3,3,7.5|
3,4,0.41|
4,0,5.5|
4,1,7|
4,2,3.7|
4,3,8.8|
4,4,1.5|
];
initial_distribution_y1=[0.014,0.25,0.37,0.22,0.14];
initial_distribution_y2=[0.22,0.093,0.29,0.14,0.26];
transition_y1=[
0.26,0.075,0.17,0.3,0.19|
0.41,0.0052,0.39,0.055,0.14|
0.25,0.16,0.26,0.24,0.091|
0.21,0.31,0.25,0.047,0.18|
0.29,0.27,0.12,0.27,0.056|
];
transition_y2=[
0.18,0.21,0.19,0.2,0.22|
0.37,0.22,0.23,0.063,0.12|
0.023,0.43,0.31,0.072,0.16|
0.086,0.29,0.036,0.29,0.3|
0.062,0.14,0.19,0.56,0.041|
];
